c FILE /home/rafael/Documents/HappySet/MIHS/inputs/happygen/output/graph_d_regular_k7_p0.3_v100_20241127_084059.txt
c SOURCE This is a d-regular graph formed for the happy graph colouring problem.
c DESCRIPTION It was generated using the problem generator of Rhyd Lewis
c
c GRAPH STATS
c Seed                             = -1728623494
c Number of Nodes                  = 100
c Number of colours k              = 7
c Number of pre-assignments        = 30
c Degree of all vertices           = 6
c Density                          = 0.0606061
c 
c The degrees of nodes 1 to 100, respectively, are as follows 
c [6, 6, 6, 6, 6, 6, 6, 6, 6, 6, 6, 6, 6, 6, 6, 6, 6, 6, 6, 6, 6, 6, 6, 6, 6, 6, 
c  6, 6, 6, 6, 6, 6, 6, 6, 6, 6, 6, 6, 6, 6, 6, 6, 6, 6, 6, 6, 6, 6, 6, 6, 6, 
c  6, 6, 6, 6, 6, 6, 6, 6, 6, 6, 6, 6, 6, 6, 6, 6, 6, 6, 6, 6, 6, 6, 6, 6, 6, 
c  6, 6, 6, 6, 6, 6, 6, 6, 6, 6, 6, 6, 6, 6, 6, 6, 6, 6, 6, 6, 6, 6, 6, 6] 
c  
p edge 100 300 7
e 1 27
e 1 36
e 1 53
e 1 64
e 1 94
e 1 98
e 2 10
e 2 14
e 2 16
e 2 37
e 2 43
e 2 45
e 3 18
e 3 24
e 3 46
e 3 48
e 3 51
e 3 84
e 4 29
e 4 31
e 4 74
e 4 80
e 4 99
e 4 100
e 5 20
e 5 24
e 5 27
e 5 45
e 5 62
e 5 65
e 6 20
e 6 23
e 6 49
e 6 55
e 6 62
e 6 66
e 7 10
e 7 13
e 7 42
e 7 49
e 7 60
e 7 99
e 8 37
e 8 50
e 8 63
e 8 70
e 8 80
e 8 94
e 9 18
e 9 22
e 9 25
e 9 71
e 9 80
e 9 96
e 10 15
e 10 32
e 10 56
e 10 70
e 11 13
e 11 28
e 11 34
e 11 74
e 11 86
e 11 88
e 12 18
e 12 20
e 12 24
e 12 25
e 12 31
e 12 90
e 13 23
e 13 34
e 13 81
e 13 92
e 14 19
e 14 45
e 14 67
e 14 69
e 14 72
e 15 22
e 15 58
e 15 59
e 15 72
e 15 94
e 16 42
e 16 61
e 16 70
e 16 79
e 16 89
e 17 24
e 17 28
e 17 58
e 17 61
e 17 68
e 17 77
e 18 23
e 18 84
e 18 85
e 19 50
e 19 62
e 19 68
e 19 74
e 19 98
e 20 31
e 20 53
e 20 83
e 21 29
e 21 39
e 21 47
e 21 64
e 21 78
e 21 93
e 22 31
e 22 40
e 22 66
e 22 72
e 23 56
e 23 58
e 23 92
e 24 37
e 24 100
e 25 54
e 25 73
e 25 87
e 25 95
e 26 36
e 26 47
e 26 52
e 26 62
e 26 79
e 26 92
e 27 41
e 27 52
e 27 75
e 27 79
e 28 51
e 28 61
e 28 78
e 28 87
e 29 54
e 29 60
e 29 96
e 29 97
e 30 33
e 30 37
e 30 52
e 30 54
e 30 69
e 30 72
e 31 55
e 31 90
e 32 56
e 32 57
e 32 78
e 32 83
e 32 90
e 33 34
e 33 49
e 33 62
e 33 76
e 33 95
e 34 44
e 34 63
e 34 77
e 35 49
e 35 59
e 35 65
e 35 66
e 35 71
e 35 73
e 36 38
e 36 42
e 36 55
e 36 69
e 37 83
e 37 88
e 38 66
e 38 67
e 38 68
e 38 73
e 38 91
e 39 43
e 39 45
e 39 48
e 39 77
e 39 100
e 40 71
e 40 88
e 40 89
e 40 96
e 40 97
e 41 55
e 41 77
e 41 80
e 41 91
e 41 93
e 42 85
e 42 91
e 42 95
e 43 57
e 43 65
e 43 78
e 43 90
e 44 57
e 44 70
e 44 87
e 44 93
e 44 95
e 45 48
e 45 96
e 46 53
e 46 54
e 46 69
e 46 70
e 46 94
e 47 53
e 47 68
e 47 75
e 47 88
e 48 75
e 48 81
e 48 94
e 49 67
e 49 85
e 50 51
e 50 65
e 50 90
e 50 98
e 51 65
e 51 84
e 51 87
e 52 75
e 52 82
e 52 96
e 53 67
e 53 98
e 54 59
e 54 85
e 55 59
e 55 87
e 56 58
e 56 68
e 56 86
e 57 61
e 57 74
e 57 76
e 58 81
e 58 86
e 59 73
e 59 83
e 60 64
e 60 84
e 60 86
e 60 88
e 61 76
e 61 79
e 62 80
e 63 82
e 63 89
e 63 90
e 63 99
e 64 71
e 64 75
e 64 95
e 65 97
e 66 67
e 66 76
e 67 83
e 68 100
e 69 74
e 69 78
e 70 86
e 71 78
e 71 95
e 72 87
e 72 100
e 73 84
e 73 86
e 74 100
e 75 98
e 76 89
e 76 98
e 77 89
e 77 92
e 79 80
e 79 85
e 81 84
e 81 91
e 81 92
e 82 89
e 82 91
e 82 93
e 82 97
e 83 99
e 85 99
e 88 97
e 91 92
e 93 94
e 93 97
e 96 99
n 7 2
n 8 7
n 10 2
n 18 4
n 20 2
n 23 4
n 24 7
n 29 5
n 30 5
n 36 5
n 41 5
n 44 3
n 46 5
n 48 1
n 51 2
n 54 5
n 58 4
n 59 5
n 65 2
n 66 3
n 71 1
n 74 7
n 77 5
n 78 1
n 79 2
n 82 6
n 86 4
n 96 5
n 98 3
n 100 7
